data;

param num_top:=3;

#nodes and edges of the physical network
param n := 10;

set E := (1,2) (1,3) (1,7) (2,4) (2,7) (3,5) (4,8) (5,6) (5,7) (6,7) (6,9) (7,8) (7,9) (8,10) (9,10) ;

#nodes and edges of the virtual networks
set Nl[1] := 3 6 8 4 5 ;
set Nl[2] := 5 1 4 9 2 ;
set Nl[3] := 8 2 1 6 3 ;

set El[1] := (3,6) (6,8) (4,8) (4,5) (3,5) (3,8) (5,8) (4,6) (5,6) (3,4) ;
set El[2] := (1,5) (1,4) (4,9) (2,9) (2,5) (1,9) (4,5) (5,9) (1,2) (2,4) ;
set El[3] := (2,8) (1,2) (1,6) (3,6) (3,8) (2,3) (1,3) (1,8) (2,6) (6,8) ;
